 proc title ; proc chmatrix occasions= 10 groups= 2 etype= Live Nodes= 101 icovar = 1 ICMeans
 NoHist hist= 228 ; time interval 1 1 1 1 1 1 1 1 1 ; icovariates TL ;
glabel(1)=sexF;
glabel(2)=sexM;
 1000000000 0 1 330;
 1000000000 0 1 364;
 1000000000 0 2 368;
 1000000000 0 2 369;
 1000000000 0 1 373;
 1000000000 0 1 389;
 1000000000 0 1 404;
 1000000000 0 1 424;
 1000000000 1 0 396;
 1000000000 1 0 412;
 1000000000 1 0 415;
 1000000000 1 0 423;
 1000000000 1 0 429;
 1000000000 1 0 455;
 1000000000 1 0 470;
 1011100000 0 1 420;
 1011100000 1 0 464;
 1011100000 1 0 474;
 1011110000 0 1 414;
 1100000000 0 1 367;
 1100000000 0 2 371;
 1100000000 0 1 373;
 1100000000 0 1 374;
 1100000000 0 1 375;
 1100000000 0 1 376;
 1100000000 0 1 377;
 1100000000 0 1 379;
 1100000000 0 1 383;
 1100000000 0 3 384;
 1100000000 0 1 388;
 1100000000 0 2 389;
 1100000000 0 1 390;
 1100000000 0 3 391;
 1100000000 0 2 392;
 1100000000 0 2 393;
 1100000000 0 1 397;
 1100000000 0 2 398;
 1100000000 0 1 400;
 1100000000 0 1 401;
 1100000000 0 1 403;
 1100000000 0 2 404;
 1100000000 0 1 406;
 1100000000 0 2 410;
 1100000000 0 1 411;
 1100000000 0 1 412;
 1100000000 0 1 413;
 1100000000 0 1 414;
 1100000000 0 1 416;
 1100000000 0 4 418;
 1100000000 0 3 419;
 1100000000 0 4 420;
 1100000000 0 3 422;
 1100000000 0 1 423;
 1100000000 0 1 424;
 1100000000 0 1 425;
 1100000000 0 1 427;
 1100000000 0 1 428;
 1100000000 0 1 429;
 1100000000 0 1 432;
 1100000000 0 1 434;
 1100000000 0 1 435;
 1100000000 0 1 440;
 1100000000 0 1 448;
 1100000000 0 1 454;
 1100000000 0 1 457;
 1100000000 1 0 340;
 1100000000 1 0 363;
 1100000000 1 0 394;
 1100000000 1 0 399;
 1100000000 1 0 404;
 1100000000 1 0 408;
 1100000000 1 0 412;
 1100000000 1 0 414;
 1100000000 1 0 418;
 1100000000 1 0 436;
 1100000000 2 0 441;
 1100000000 1 0 445;
 1100000000 1 0 448;
 1100000000 1 0 456;
 1100000000 1 0 474;
 1100000000 1 0 505;
 1110000000 0 1 408;
 1110000000 0 1 415;
 1110000000 0 1 422;
 1110000000 0 1 437;
 1110000000 1 0 418;
 1110000000 1 0 428;
 1110000000 1 0 429;
 1110000000 1 0 449;
 1110000000 1 0 454;
 1110000000 1 0 463;
 1111000000 0 1 399;
 1111000000 0 1 440;
 1111100000 0 1 385;
 1111100000 0 1 397;
 1111100000 0 2 403;
 1111100000 0 1 408;
 1111100000 0 1 409;
 1111100000 0 1 410;
 1111100000 0 1 411;
 1111100000 0 1 414;
 1111100000 0 1 415;
 1111100000 0 2 418;
 1111100000 0 1 424;
 1111100000 0 1 428;
 1111100000 0 2 430;
 1111100000 0 1 433;
 1111100000 0 2 439;
 1111100000 0 1 443;
 1111100000 0 2 458;
 1111100000 0 1 459;
 1111100000 0 1 472;
 1111100000 0 1 474;
 1111100000 1 0 418;
 1111100000 1 0 421;
 1111100000 1 0 424;
 1111100000 1 0 427;
 1111100000 1 0 429;
 1111100000 1 0 439;
 1111100000 1 0 445;
 1111100000 2 0 447;
 1111100000 2 0 448;
 1111100000 1 0 449;
 1111100000 1 0 452;
 1111100000 1 0 455;
 1111100000 1 0 459;
 1111100000 1 0 462;
 1111100000 1 0 463;
 1111100000 1 0 464;
 1111100000 1 0 465;
 1111100000 1 0 468;
 1111100000 1 0 470;
 1111100000 1 0 477;
 1111100000 1 0 480;
 1111100000 1 0 484;
 1111100000 3 0 490;
 1111100000 1 0 496;
 1111110000 0 1 317;
 1111110000 0 1 355;
 1111110000 0 1 400;
 1111110000 0 2 403;
 1111110000 0 2 404;
 1111110000 0 1 405;
 1111110000 0 1 408;
 1111110000 0 1 409;
 1111110000 0 1 411;
 1111110000 0 1 412;
 1111110000 0 1 414;
 1111110000 0 1 420;
 1111110000 0 2 424;
 1111110000 0 1 425;
 1111110000 0 2 428;
 1111110000 0 2 429;
 1111110000 0 1 430;
 1111110000 0 1 431;
 1111110000 0 2 432;
 1111110000 0 1 434;
 1111110000 0 3 437;
 1111110000 0 1 439;
 1111110000 0 2 449;
 1111110000 0 1 458;
 1111110000 1 0 408;
 1111110000 1 0 412;
 1111110000 1 0 416;
 1111110000 1 0 420;
 1111110000 3 0 423;
 1111110000 1 0 424;
 1111110000 3 0 427;
 1111110000 3 0 428;
 1111110000 2 0 430;
 1111110000 1 0 434;
 1111110000 1 0 436;
 1111110000 1 0 440;
 1111110000 1 0 442;
 1111110000 3 0 443;
 1111110000 2 0 444;
 1111110000 1 0 445;
 1111110000 1 0 446;
 1111110000 1 0 447;
 1111110000 3 0 448;
 1111110000 4 0 449;
 1111110000 4 0 450;
 1111110000 2 0 452;
 1111110000 1 0 453;
 1111110000 1 0 454;
 1111110000 2 0 455;
 1111110000 1 0 457;
 1111110000 2 0 458;
 1111110000 2 0 459;
 1111110000 1 0 461;
 1111110000 3 0 463;
 1111110000 1 0 464;
 1111110000 2 0 466;
 1111110000 1 0 468;
 1111110000 1 0 469;
 1111110000 2 0 470;
 1111110000 1 0 471;
 1111110000 2 0 472;
 1111110000 1 0 473;
 1111110000 1 0 475;
 1111110000 1 0 476;
 1111110000 2 0 479;
 1111110000 1 0 481;
 1111110000 2 0 484;
 1111110000 1 0 485;
 1111110000 1 0 486;
 1111110000 1 0 489;
 1111110000 1 0 490;
 1111110000 1 0 495;
 1111110000 1 0 498;
 1111110000 2 0 500;
 1111110100 0 1 470;
 1111110111 0 1 345;
 1111110111 0 1 404;
 1111110111 1 0 434;
 1111110111 1 0 469;
 1111111000 0 1 415;
 1111111000 0 1 419;
 1111111000 0 1 424;
 1111111000 0 1 441;
 1111111000 1 0 400;
 1111111000 1 0 410;
 1111111000 1 0 429;
 1111111000 1 0 446;
 1111111000 1 0 459;
 1111111000 1 0 463;
 1111111000 1 0 467;
 1111111000 1 0 480;
proc estimate link=Logit NOLOOP varest=2ndPart    ;
model={ Phi(~age2 + first_year:TL)p(~time) };
group=1 Phi    rows=9 cols=9 Triang ;
1 2 3 3 3 3 3 3 3 ;
1 2 3 3 3 3 3 3 ;
1 2 3 3 3 3 3 ;
1 2 3 3 3 3 ;
1 2 3 3 3 ;
1 2 3 3 ;
1 2 3 ;
1 2 ;
1 ;
group=2 Phi    rows=9 cols=9 Triang ;
1 2 3 3 3 3 3 3 3 ;
1 2 3 3 3 3 3 3 ;
1 2 3 3 3 3 3 ;
1 2 3 3 3 3 ;
1 2 3 3 3 ;
1 2 3 3 ;
1 2 3 ;
1 2 ;
1 ;
group=1 p    rows=9 cols=9 Triang ;
4 5 6 7 8 9 10 11 12 ;
5 6 7 8 9 10 11 12 ;
6 7 8 9 10 11 12 ;
7 8 9 10 11 12 ;
8 9 10 11 12 ;
9 10 11 12 ;
10 11 12 ;
11 12 ;
12 ;
group=2 p    rows=9 cols=9 Triang ;
4 5 6 7 8 9 10 11 12 ;
5 6 7 8 9 10 11 12 ;
6 7 8 9 10 11 12 ;
7 8 9 10 11 12 ;
8 9 10 11 12 ;
9 10 11 12 ;
10 11 12 ;
11 12 ;
12 ;
design matrix constraints=12 covariates=13;
1 0 0 0 0 0 0 0 0 0 0 0 0;
1 1 0 TL 0 0 0 0 0 0 0 0 0;
1 0 1 0 0 0 0 0 0 0 0 0 0;
0 0 0 0 1 0 0 0 0 0 0 0 0;
0 0 0 0 1 1 0 0 0 0 0 0 0;
0 0 0 0 1 0 1 0 0 0 0 0 0;
0 0 0 0 1 0 0 1 0 0 0 0 0;
0 0 0 0 1 0 0 0 1 0 0 0 0;
0 0 0 0 1 0 0 0 0 1 0 0 0;
0 0 0 0 1 0 0 0 0 0 1 0 0;
0 0 0 0 1 0 0 0 0 0 0 1 0;
0 0 0 0 1 0 0 0 0 0 0 0 1;
blabel(1)=Phi:(Intercept);
blabel(2)=Phi:age22;
blabel(3)=Phi:age23;
blabel(4)=Phi:first_year:TL;
blabel(5)=p:(Intercept);
blabel(6)=p:time3;
blabel(7)=p:time4;
blabel(8)=p:time5;
blabel(9)=p:time6;
blabel(10)=p:time7;
blabel(11)=p:time8;
blabel(12)=p:time9;
blabel(13)=p:time10;
rlabel(1)=Phi gF c1 a0 t1;
rlabel(2)=Phi gF c1 a1 t2;
rlabel(3)=Phi gF c1 a2 t3;
rlabel(4)=p gF c1 a1 t2;
rlabel(5)=p gF c1 a2 t3;
rlabel(6)=p gF c1 a3 t4;
rlabel(7)=p gF c1 a4 t5;
rlabel(8)=p gF c1 a5 t6;
rlabel(9)=p gF c1 a6 t7;
rlabel(10)=p gF c1 a7 t8;
rlabel(11)=p gF c1 a8 t9;
rlabel(12)=p gF c1 a9 t10;
proc stop;
