 proc title ; proc chmatrix occasions= 10 groups= 2 etype= Live Nodes= 101 icovar = 1 ICMeans
 NoHist hist= 228 ; time interval 1 1 1 1 1 1 1 1 1 ; icovariates TL ;
glabel(1)=sexF;
glabel(2)=sexM;
 1000000000 0 1 330;
 1000000000 0 1 364;
 1000000000 0 2 368;
 1000000000 0 2 369;
 1000000000 0 1 373;
 1000000000 0 1 389;
 1000000000 0 1 404;
 1000000000 0 1 424;
 1000000000 1 0 396;
 1000000000 1 0 412;
 1000000000 1 0 415;
 1000000000 1 0 423;
 1000000000 1 0 429;
 1000000000 1 0 455;
 1000000000 1 0 470;
 1011100000 0 1 420;
 1011100000 1 0 464;
 1011100000 1 0 474;
 1011110000 0 1 414;
 1100000000 0 1 367;
 1100000000 0 2 371;
 1100000000 0 1 373;
 1100000000 0 1 374;
 1100000000 0 1 375;
 1100000000 0 1 376;
 1100000000 0 1 377;
 1100000000 0 1 379;
 1100000000 0 1 383;
 1100000000 0 3 384;
 1100000000 0 1 388;
 1100000000 0 2 389;
 1100000000 0 1 390;
 1100000000 0 3 391;
 1100000000 0 2 392;
 1100000000 0 2 393;
 1100000000 0 1 397;
 1100000000 0 2 398;
 1100000000 0 1 400;
 1100000000 0 1 401;
 1100000000 0 1 403;
 1100000000 0 2 404;
 1100000000 0 1 406;
 1100000000 0 2 410;
 1100000000 0 1 411;
 1100000000 0 1 412;
 1100000000 0 1 413;
 1100000000 0 1 414;
 1100000000 0 1 416;
 1100000000 0 4 418;
 1100000000 0 3 419;
 1100000000 0 4 420;
 1100000000 0 3 422;
 1100000000 0 1 423;
 1100000000 0 1 424;
 1100000000 0 1 425;
 1100000000 0 1 427;
 1100000000 0 1 428;
 1100000000 0 1 429;
 1100000000 0 1 432;
 1100000000 0 1 434;
 1100000000 0 1 435;
 1100000000 0 1 440;
 1100000000 0 1 448;
 1100000000 0 1 454;
 1100000000 0 1 457;
 1100000000 1 0 340;
 1100000000 1 0 363;
 1100000000 1 0 394;
 1100000000 1 0 399;
 1100000000 1 0 404;
 1100000000 1 0 408;
 1100000000 1 0 412;
 1100000000 1 0 414;
 1100000000 1 0 418;
 1100000000 1 0 436;
 1100000000 2 0 441;
 1100000000 1 0 445;
 1100000000 1 0 448;
 1100000000 1 0 456;
 1100000000 1 0 474;
 1100000000 1 0 505;
 1110000000 0 1 408;
 1110000000 0 1 415;
 1110000000 0 1 422;
 1110000000 0 1 437;
 1110000000 1 0 418;
 1110000000 1 0 428;
 1110000000 1 0 429;
 1110000000 1 0 449;
 1110000000 1 0 454;
 1110000000 1 0 463;
 1111000000 0 1 399;
 1111000000 0 1 440;
 1111100000 0 1 385;
 1111100000 0 1 397;
 1111100000 0 2 403;
 1111100000 0 1 408;
 1111100000 0 1 409;
 1111100000 0 1 410;
 1111100000 0 1 411;
 1111100000 0 1 414;
 1111100000 0 1 415;
 1111100000 0 2 418;
 1111100000 0 1 424;
 1111100000 0 1 428;
 1111100000 0 2 430;
 1111100000 0 1 433;
 1111100000 0 2 439;
 1111100000 0 1 443;
 1111100000 0 2 458;
 1111100000 0 1 459;
 1111100000 0 1 472;
 1111100000 0 1 474;
 1111100000 1 0 418;
 1111100000 1 0 421;
 1111100000 1 0 424;
 1111100000 1 0 427;
 1111100000 1 0 429;
 1111100000 1 0 439;
 1111100000 1 0 445;
 1111100000 2 0 447;
 1111100000 2 0 448;
 1111100000 1 0 449;
 1111100000 1 0 452;
 1111100000 1 0 455;
 1111100000 1 0 459;
 1111100000 1 0 462;
 1111100000 1 0 463;
 1111100000 1 0 464;
 1111100000 1 0 465;
 1111100000 1 0 468;
 1111100000 1 0 470;
 1111100000 1 0 477;
 1111100000 1 0 480;
 1111100000 1 0 484;
 1111100000 3 0 490;
 1111100000 1 0 496;
 1111110000 0 1 317;
 1111110000 0 1 355;
 1111110000 0 1 400;
 1111110000 0 2 403;
 1111110000 0 2 404;
 1111110000 0 1 405;
 1111110000 0 1 408;
 1111110000 0 1 409;
 1111110000 0 1 411;
 1111110000 0 1 412;
 1111110000 0 1 414;
 1111110000 0 1 420;
 1111110000 0 2 424;
 1111110000 0 1 425;
 1111110000 0 2 428;
 1111110000 0 2 429;
 1111110000 0 1 430;
 1111110000 0 1 431;
 1111110000 0 2 432;
 1111110000 0 1 434;
 1111110000 0 3 437;
 1111110000 0 1 439;
 1111110000 0 2 449;
 1111110000 0 1 458;
 1111110000 1 0 408;
 1111110000 1 0 412;
 1111110000 1 0 416;
 1111110000 1 0 420;
 1111110000 3 0 423;
 1111110000 1 0 424;
 1111110000 3 0 427;
 1111110000 3 0 428;
 1111110000 2 0 430;
 1111110000 1 0 434;
 1111110000 1 0 436;
 1111110000 1 0 440;
 1111110000 1 0 442;
 1111110000 3 0 443;
 1111110000 2 0 444;
 1111110000 1 0 445;
 1111110000 1 0 446;
 1111110000 1 0 447;
 1111110000 3 0 448;
 1111110000 4 0 449;
 1111110000 4 0 450;
 1111110000 2 0 452;
 1111110000 1 0 453;
 1111110000 1 0 454;
 1111110000 2 0 455;
 1111110000 1 0 457;
 1111110000 2 0 458;
 1111110000 2 0 459;
 1111110000 1 0 461;
 1111110000 3 0 463;
 1111110000 1 0 464;
 1111110000 2 0 466;
 1111110000 1 0 468;
 1111110000 1 0 469;
 1111110000 2 0 470;
 1111110000 1 0 471;
 1111110000 2 0 472;
 1111110000 1 0 473;
 1111110000 1 0 475;
 1111110000 1 0 476;
 1111110000 2 0 479;
 1111110000 1 0 481;
 1111110000 2 0 484;
 1111110000 1 0 485;
 1111110000 1 0 486;
 1111110000 1 0 489;
 1111110000 1 0 490;
 1111110000 1 0 495;
 1111110000 1 0 498;
 1111110000 2 0 500;
 1111110100 0 1 470;
 1111110111 0 1 345;
 1111110111 0 1 404;
 1111110111 1 0 434;
 1111110111 1 0 469;
 1111111000 0 1 415;
 1111111000 0 1 419;
 1111111000 0 1 424;
 1111111000 0 1 441;
 1111111000 1 0 400;
 1111111000 1 0 410;
 1111111000 1 0 429;
 1111111000 1 0 446;
 1111111000 1 0 459;
 1111111000 1 0 463;
 1111111000 1 0 467;
 1111111000 1 0 480;
proc estimate link=Logit NOLOOP varest=2ndPart    ;
model={ Phi(~time + sex + first_year:TL)p(~1) };
group=1 Phi    rows=9 cols=9 Triang ;
1 2 3 4 5 6 7 8 9 ;
10 11 4 5 6 7 8 9 ;
3 12 5 6 7 8 9 ;
4 13 6 7 8 9 ;
5 14 7 8 9 ;
6 15 8 9 ;
7 16 9 ;
8 17 ;
9 ;
group=2 Phi    rows=9 cols=9 Triang ;
18 19 20 21 22 23 24 25 26 ;
27 28 21 22 23 24 25 26 ;
20 29 22 23 24 25 26 ;
21 30 23 24 25 26 ;
22 31 24 25 26 ;
23 32 25 26 ;
24 33 26 ;
25 34 ;
26 ;
group=1 p    rows=9 cols=9 Triang ;
35 35 35 35 35 35 35 35 35 ;
35 35 35 35 35 35 35 35 ;
35 35 35 35 35 35 35 ;
35 35 35 35 35 35 ;
35 35 35 35 35 ;
35 35 35 35 ;
35 35 35 ;
35 35 ;
35 ;
group=2 p    rows=9 cols=9 Triang ;
35 35 35 35 35 35 35 35 35 ;
35 35 35 35 35 35 35 35 ;
35 35 35 35 35 35 35 ;
35 35 35 35 35 35 ;
35 35 35 35 35 ;
35 35 35 35 ;
35 35 35 ;
35 35 ;
35 ;
design matrix constraints=35 covariates=12;
1 0 0 0 0 0 0 0 0 0 0 0;
1 1 0 0 0 0 0 0 0 0 TL 0;
1 0 1 0 0 0 0 0 0 0 0 0;
1 0 0 1 0 0 0 0 0 0 0 0;
1 0 0 0 1 0 0 0 0 0 0 0;
1 0 0 0 0 1 0 0 0 0 0 0;
1 0 0 0 0 0 1 0 0 0 0 0;
1 0 0 0 0 0 0 1 0 0 0 0;
1 0 0 0 0 0 0 0 1 0 0 0;
1 1 0 0 0 0 0 0 0 0 0 0;
1 0 1 0 0 0 0 0 0 0 TL 0;
1 0 0 1 0 0 0 0 0 0 TL 0;
1 0 0 0 1 0 0 0 0 0 TL 0;
1 0 0 0 0 1 0 0 0 0 TL 0;
1 0 0 0 0 0 1 0 0 0 TL 0;
1 0 0 0 0 0 0 1 0 0 TL 0;
1 0 0 0 0 0 0 0 1 0 TL 0;
1 0 0 0 0 0 0 0 0 1 0 0;
1 1 0 0 0 0 0 0 0 1 TL 0;
1 0 1 0 0 0 0 0 0 1 0 0;
1 0 0 1 0 0 0 0 0 1 0 0;
1 0 0 0 1 0 0 0 0 1 0 0;
1 0 0 0 0 1 0 0 0 1 0 0;
1 0 0 0 0 0 1 0 0 1 0 0;
1 0 0 0 0 0 0 1 0 1 0 0;
1 0 0 0 0 0 0 0 1 1 0 0;
1 1 0 0 0 0 0 0 0 1 0 0;
1 0 1 0 0 0 0 0 0 1 TL 0;
1 0 0 1 0 0 0 0 0 1 TL 0;
1 0 0 0 1 0 0 0 0 1 TL 0;
1 0 0 0 0 1 0 0 0 1 TL 0;
1 0 0 0 0 0 1 0 0 1 TL 0;
1 0 0 0 0 0 0 1 0 1 TL 0;
1 0 0 0 0 0 0 0 1 1 TL 0;
0 0 0 0 0 0 0 0 0 0 0 1;
blabel(1)=Phi:(Intercept);
blabel(2)=Phi:time2;
blabel(3)=Phi:time3;
blabel(4)=Phi:time4;
blabel(5)=Phi:time5;
blabel(6)=Phi:time6;
blabel(7)=Phi:time7;
blabel(8)=Phi:time8;
blabel(9)=Phi:time9;
blabel(10)=Phi:sexM;
blabel(11)=Phi:first_year:TL;
blabel(12)=p:(Intercept);
rlabel(1)=Phi gF c1 a0 t1;
rlabel(2)=Phi gF c1 a1 t2;
rlabel(3)=Phi gF c1 a2 t3;
rlabel(4)=Phi gF c1 a3 t4;
rlabel(5)=Phi gF c1 a4 t5;
rlabel(6)=Phi gF c1 a5 t6;
rlabel(7)=Phi gF c1 a6 t7;
rlabel(8)=Phi gF c1 a7 t8;
rlabel(9)=Phi gF c1 a8 t9;
rlabel(10)=Phi gF c2 a0 t2;
rlabel(11)=Phi gF c2 a1 t3;
rlabel(12)=Phi gF c3 a1 t4;
rlabel(13)=Phi gF c4 a1 t5;
rlabel(14)=Phi gF c5 a1 t6;
rlabel(15)=Phi gF c6 a1 t7;
rlabel(16)=Phi gF c7 a1 t8;
rlabel(17)=Phi gF c8 a1 t9;
rlabel(18)=Phi gM c1 a0 t1;
rlabel(19)=Phi gM c1 a1 t2;
rlabel(20)=Phi gM c1 a2 t3;
rlabel(21)=Phi gM c1 a3 t4;
rlabel(22)=Phi gM c1 a4 t5;
rlabel(23)=Phi gM c1 a5 t6;
rlabel(24)=Phi gM c1 a6 t7;
rlabel(25)=Phi gM c1 a7 t8;
rlabel(26)=Phi gM c1 a8 t9;
rlabel(27)=Phi gM c2 a0 t2;
rlabel(28)=Phi gM c2 a1 t3;
rlabel(29)=Phi gM c3 a1 t4;
rlabel(30)=Phi gM c4 a1 t5;
rlabel(31)=Phi gM c5 a1 t6;
rlabel(32)=Phi gM c6 a1 t7;
rlabel(33)=Phi gM c7 a1 t8;
rlabel(34)=Phi gM c8 a1 t9;
rlabel(35)=p gF c1 a1 t2;
proc stop;
